10J3M/DAT/10J3MULA-3.dat
10 3
15.5102 240.5663
5.6003 31.3634
17.1909 295.527
9.9329 98.6625
15.4627 239.0951
1.9802 3.9212
5.2964 28.0519
32.6162 1063.8165
9.0706 82.2758
38.9658 1518.3336
1618.3643