10J3M/SOL/10J3MULA-3.sol
solution status: optimal solution found
objective value:                     50.5420666666667
x#1#2                                               1 	(obj:0)
x#2#1                                               1 	(obj:0)
x#3#1                                               1 	(obj:0)
x#4#3                                               1 	(obj:0)
x#5#3                                               1 	(obj:0)
x#6#1                                               1 	(obj:0)
x#7#1                                               1 	(obj:0)
x#8#2                                               1 	(obj:0)
x#9#1                                               1 	(obj:0)
x#10#1                              0.292658348260954 	(obj:0)
x#10#2                             0.0619945353788878 	(obj:0)
x#10#3                              0.645347116360159 	(obj:0)
z                                    50.5420666666667 	(obj:1)
